! B3LYP def2-SVP d3 EnGrad 
%pal nprocs 6 end 
*xyz 0 1 
N   2.17709781648932 -0.79673440554197 -0.07243889469942
B   -0.48315570647759 1.86331642542134 0.29174592841146
B   -0.79325382523558 0.3241130354961 -0.56061583269315
N   -1.0994520849446 -0.86624558863618 0.15369756649481
H   1.30343206973428 -1.28022265349375 0.14856191945641
H   2.78459646642221 -0.89824484122795 0.74256542828304
H   2.6170471190213 -1.33114233924205 -0.82388014120064
H   -1.58566063552603 1.44748479938405 -0.21558359782779
H   -0.55724801312335 1.8433921031904 1.49697098334771
H   -0.19385508645209 2.86611970763544 -0.30753765410741
H   -0.74839289975835 0.28771085418694 -1.76303064142184
H   0.35260216041902 0.96711116303754 -0.10646411241238
H   -1.24461333371591 -0.88665315341176 1.15636807351355
H   -1.4340600468526 -1.69171810679816 -0.32510402514436
*
