! B3LYP def2-SVP d3 EnGrad 
%pal nprocs 6 end 
*xyz 0 1 
C   -1.83553548860409 0.04596989146944 -0.35441754661091
C   -0.58542661152507 0.61856304847264 0.05503275917095
N   0.37773066208769 -0.16435195450784 -0.37443952166171
C   1.70160634063573 -0.26336999360286 0.2116859229007
H   -0.37346675226363 1.54800639692495 0.6105552486181
H   -2.69411982148379 0.68735297473544 -0.59425834278327
H   -0.64610970231106 -0.76587432212642 -0.93315368673772
H   -2.11661641591592 -0.8179892425341 0.26691597289678
H   1.75853763457753 -1.11484025270207 0.91258546487444
H   2.45549574169761 -0.42523089285081 -0.57485565436939
H   1.957904413105 0.65176434672162 0.77434938370205
*
