! B3LYP def2-SVP d3 EnGrad 
%pal nprocs 6 end 
*xyz 0 1 
C   -1.17430471027269 -0.19799115846883 -2.6614801e-07
C   0.00280682113874 -1.18354838371672 -1.9441852e-07
O   1.14929224823193 -0.31331888103573 4.6511378e-07
N   0.70888773197186 1.01676803889787 5.8557496e-07
N   -0.51017081738584 1.12084340934417 -7.0878232e-07
H   -1.82090207394412 -0.26058444824075 0.8889041981354
H   -1.8209033014707 -0.26058516099764 -0.88890367726476
H   0.04031182024332 -1.8197617723105 0.8976945644863
H   0.04031228148747 -1.81976164347188 -0.89769496669681
*
