! B3LYP def2-SVP d3 EnGrad 
%pal nprocs 6 end 
*xyz 0 1 
C   -1.07975483777743 9.05620026e-06 0.77254165025051
H   -1.3618816419366 0.92642094764808 1.27965305119271
H   -1.36189070898468 -0.92639417692472 1.27966336929002
C   -1.07975270774525 2.33931569e-06 -0.77254283842738
H   -1.36188774781618 -0.9264060605609 -1.27965563974819
H   -1.36187901402247 0.92640862102155 -1.2796642602323
C   0.18155483184795 -5.6912341e-07 5.353364e-08
F   0.95756534349427 -1.10155349600781 4.54304589e-06
F   0.9575764829404 1.10154433843124 -4.92890491e-06
*
