! B3LYP def2-SVP d3 EnGrad 
%pal nprocs 6 end 
*xyz 0 1 
C   1.79963900415232 -0.5158765756471 0.22826842330316
O   1.17898069352929 -0.50887675312107 1.26334518092648
C   -1.74240558881911 0.63227682172289 -0.29148275960642
O   -1.20291601749182 -0.66341323464817 -0.22940581628069
H   2.91327996676335 -0.42496624117495 0.21280770853119
H   1.28360453272434 -0.613983355663 -0.75516336697496
H   -0.96985422277761 1.42347001279988 -0.39195318158148
H   -2.39171513495933 0.69213930466347 -1.17998970881522
H   -0.62254960276773 -0.70685014621982 0.54934649994336
H   -2.3650336303537 0.88708016728785 0.59047202055459
*
