! B3LYP def2-SVP d3 EnGrad 
%pal nprocs 6 end 
*xyz 0 1 
C   -1.53352485059816 -1.59245765546108 0.33757870067156
C   -0.9532177894345 -0.97465538061508 -0.68559478431503
C   -0.39699515944125 0.71239152832869 -0.33467705897677
C   -0.61381637307265 1.28651798288356 0.93343109391212
C   2.13738186942579 -0.06648522623425 0.08230318360219
C   1.26736556740456 0.73865253351256 -0.56962877206175
H   -0.98471833405349 -1.34559990489068 -1.72099896877113
H   -1.51607329609253 -1.09462456890044 1.32025782164117
H   -2.06839855457514 -2.54165464909303 0.2384341607901
H   3.20302032790722 0.17013974848399 0.13990219350924
H   1.79028989343234 -0.96744092662359 0.5978225652373
H   0.37446339284759 -0.1940830376286 -0.79106250063849
H   1.54384011084484 1.6076210611137 -1.1653696295652
H   -1.40288816282155 2.03479037334203 1.02209320695987
H   -0.02366138369488 1.00786650964461 1.80316507262393
H   -0.8230672580782 1.21902161213763 -1.2076562846191
*
