! B3LYP def2-SVP d3 EnGrad 
%pal nprocs 6 end 
*xyz 0 2 
C   -1.9385196627998 0.488115293742 -1.13844223101015
C   -1.50026918531271 0.70140296776181 0.12314808336194
C   -1.6204883431138 -0.37368210196598 1.22224891351611
C   -1.72496668761761 -1.808489025946 0.62602838539128
C   -2.74283191765346 -1.85227110319669 -0.51767734629691
C   -2.4341689768076 -0.85313881803779 -1.62768857272205
H   -2.80296955115722 -2.87437885961699 -0.92706245162941
H   -3.74211701123162 -1.6304165062639 -0.11055585485837
H   -1.68720750293981 -1.26792482695809 -2.33202270983148
H   -3.33639893064126 -0.69577176432283 -2.24516333701326
C   -1.95097555350556 1.5500523001574 -2.212716063099
H   -1.93607833782896 2.57463428050653 -1.8184862243935
H   -1.08546138991542 1.44350761670744 -2.89266199173852
H   -2.85217447528499 1.44761132434222 -2.84022395015286
C   -0.37304475611397 -2.48088639124148 0.26317405633096
C   -1.02132686325783 2.08050090646398 0.55954378700724
C   0.60737904596529 -1.73888765078808 -0.60248540156659
H   0.12020080332308 -2.7877438712853 1.1948325896417
C   0.28112976425591 2.60170809779381 -0.09395846462122
C   1.54891792196064 1.83395814506446 0.14959868423778
H   0.41957908740275 3.64557771571903 0.26739235764073
C   -0.45200973426446 -0.33714820649255 2.22725990011645
H   -0.48964068287548 0.55724365826584 2.86466624663974
H   -0.51375740013354 -1.20863958688861 2.89870777810304
C   -2.91135300311028 -0.06027226630308 2.01979681290975
H   -2.87577287747972 0.96103937134937 2.43069927363895
H   -3.80903886339723 -0.12842618286534 1.38900169293953
H   -3.02577199082923 -0.75690444302084 2.8673932454176
H   -1.80987658364782 2.82146313872675 0.33810395232695
H   -0.90482900746844 2.11006934557356 1.65101808837137
H   0.12546739501705 2.68672664287069 -1.17820334477487
C   2.47748951853384 1.66587491728222 -1.01940890923058
H   3.09596580336638 2.59159838677075 -1.0935930540389
C   3.44278914209411 0.47066961513644 -1.0255964276963
H   4.23406456209294 0.6794977574106 -1.76517756785645
H   3.96390482579325 0.39166249591052 -0.05672226171352
C   2.79657804121094 -0.87516359163568 -1.4022871377089
H   2.22129449117573 -0.73826766932161 -2.33325163347413
H   3.61360487501456 -1.58160423127311 -1.64427938187404
C   1.91539563605227 -1.52975221351529 -0.36064053568582
H   1.88673607460974 1.64158132228856 -1.9519773251709
H   0.22523029079236 -1.38110921701245 -1.56236151210836
C   2.1460245478616 1.87866311731423 1.52171353913227
H   2.84216841018636 2.7413653677644 1.61861173175409
H   1.3828269698006 1.99272764119282 2.30484225359753
H   2.73665453923861 0.98056307435962 1.76337893559286
C   2.63711997143572 -1.97867369774344 0.88469625869377
H   3.46759276030668 -2.65794879143907 0.62202225893745
H   3.0929320783165 -1.12481123551282 1.41316348156919
H   1.9893444864251 -2.49981833639474 1.60068380139048
H   -0.63098944585678 -3.42681507557295 -0.25135935611565
H   -2.13423653338056 -2.44175100815438 1.43350002792851
H   0.5202742253932 -0.35404882770591 1.72419391019443
*
