! B3LYP def2-SVP d3 EnGrad 
%pal nprocs 6 end 
*xyz 0 1 
C   1.81703943983849 0.43398277006388 0.36431805898164
C   0.4105153741767 0.88608112734043 -0.0540206678148
H   2.21088912838199 -0.35506798434654 -0.29822955161491
H   1.8054735491964 0.02594642998756 1.3871343711882
H   2.52849351010562 1.27404032070686 0.3339882400892
C   -0.59801126186085 -0.23395192455248 -0.06597921003441
O   -0.34137699736036 -1.25313633783145 -0.94055481952123
C   -1.67681032188341 -0.29207686956737 0.72675530587479
H   -1.88097951866295 0.50739185212536 1.43926688227917
H   -2.3639153059551 -1.13890501160318 0.67073117374681
H   0.05310058428009 1.679695526082 0.61836237679221
H   0.42449905814654 -1.02816944543865 -1.48289232121254
H   0.45473776159684 1.33320254703357 -1.06683383875411
*
