! B3LYP def2-SVP d3 EnGrad 
%pal nprocs 6 end 
*xyz 0 1 
N   1.25000214044382 -1.27972800997024 -0.04168204524008
B   1.04659253299832 0.19397775478648 -0.59632592734836
B   -0.91393686711475 0.26269517581186 0.33685327058425
N   -2.03036122895122 1.22204319603859 0.43827021885093
H   0.362125524022 -1.46495033245128 0.50330074934251
H   2.0485761299306 -1.36798070672623 0.58883857458246
H   1.32959019553635 -1.98119072776428 -0.77963355104233
H   0.14533805810326 0.68433088903026 0.83635986380553
H   1.8470429095992 0.96251560993174 -0.11132867672619
H   1.015753248003 0.21680037274364 -1.80663909254918
H   -0.67083000276189 -0.08344587981102 -0.83432639715827
H   -1.00485362446353 -0.8745478494034 0.90380982539767
H   -2.54677862643493 1.43748465392747 -0.40725589944338
H   -1.87826038891025 2.07199585385639 0.96975908694445
*
