! B3LYP def2-SVP d3 EnGrad 
%pal nprocs 6 end 
*xyz 0 1 
C   -7.95315e-09 -5.1192e-09 -0.74348494274856
H   -7.96454e-09 -5.11033e-09 1.43454866774768
N   1.591769e-08 1.022953e-08 0.42970727500088
*
