! B3LYP def2-SVP d3 EnGrad 
%pal nprocs 6 end 
*xyz 0 1 
N   0.70794200150898 -1.41092370045052 0.68060735098036
B   1.42391736887395 1.10604007044148 -0.76693789003743
B   -1.37114691444434 -0.2375902543542 -0.36359666372848
N   -1.6814221411689 0.90509557605283 0.37899410030542
H   0.27147847568265 -1.74504904866635 1.54066955400436
H   1.6664746738237 -1.14530455031084 0.90935370378293
H   0.76008734110328 -2.2087476840926 0.0452028130508
H   1.6700611801501 1.28635446588266 0.39838762080102
H   2.02396762216842 0.26869961504645 -1.3917375674852
H   0.70442243759885 1.87951677087698 -1.34625686157981
H   -0.72338979912165 -0.11795102789321 -1.37783969064744
H   -1.9117879543675 -1.2861134923447 -0.09561998249132
H   -2.25427093495493 0.89058825042986 1.21412676242746
H   -1.28633335685262 1.81538500938214 0.17464675061733
*
