! B3LYP def2-SVP d3 EnGrad 
%pal nprocs 6 end 
*xyz 0 1 
C   -0.93094524760193 0.72716245510684 -7.5596056e-07
H   -1.42200034687263 1.15507625645076 0.89151084524779
H   -1.42197694201678 1.15507375659278 -0.89152660304276
C   -1.00188525672488 -0.8024011629225 1.117484e-08
H   -1.51296820068043 -1.19839454133962 -0.89062446970174
H   -1.51293559977617 -1.1983960057412 0.89064252982657
F   0.3852924177254 1.15704535065037 1.66517614e-05
H   0.0265731759474 -1.19516510879743 -1.920930554e-05
*
