! B3LYP def2-SVP d3 EnGrad 
%pal nprocs 6 end 
*xyz 0 1 
C   -1.53531293490441 -1.0049248545321 -0.11195025771459
C   1.6982368710891 -0.67683052613097 0.07175590437584
C   -1.27782121457499 0.43991258028847 0.1928745994702
C   1.22747580825595 0.55701013572284 -0.17722743358917
C   -0.09875343654269 1.09258647274447 0.14807082775708
H   -1.56930334250249 -1.61323476606853 0.81078720250439
H   -2.51235114928731 -1.13110952717419 -0.606345812964
H   2.71422430113634 -0.95751797756874 -0.21915206758051
H   -0.75427133068811 -1.4347897643481 -0.75733068459753
H   1.1085271024345 -1.43228806504154 0.59623780588649
H   -2.15906199137251 1.03528156150832 0.46050367924996
H   1.9097733908796 1.27533193550699 -0.65082471944931
H   -0.12261905392298 2.17197079509305 0.34101494665114
*
