! B3LYP def2-SVP d3 EnGrad 
%pal nprocs 6 end 
*xyz 0 1 
C   -1.19287767713325 1.25989866811055 0.5889237529782
C   -0.76270155416334 0.28195502857966 -0.49271439787174
C   0.68851113281606 -0.22898869886455 -0.33303092472262
C   0.92861270155919 -0.99622520532402 0.96229927901371
O   1.6167400867493 0.82725397718922 -0.51407669799941
H   -0.50646231677746 2.11970435673136 0.63238072186223
H   -1.22176727977969 0.77089030005916 1.57484227347748
H   -2.20213412282824 1.63972612721308 0.371734497662
H   0.86092501821387 -0.32796971888333 1.83812031105831
H   1.9307443530021 -1.45065022158511 0.95961272198368
H   0.17280958901008 -1.78589774383467 1.08634128826483
H   1.63575580761175 1.34627200003772 0.30099858521333
H   -0.79426238492262 0.80894264966378 -1.46792409996888
H   -1.4935944954422 -1.3721076544134 -1.2259176020754
O   -1.68389825321891 -0.79781713720886 -0.47242220360036
H   0.87052039530335 -0.91525272747055 -1.18179850527538
*
