! B3LYP def2-SVP d3 EnGrad 
%pal nprocs 6 end 
*xyz 0 1 
H   -1.42515803169095 0.33950643792293 1.31537840617441
C   -1.33414606296751 0.42436710073323 0.21917369260305
C   0.10116775419568 0.79872622809061 -0.15412989104777
H   -2.02429090944459 1.2324734070329 -0.09568549715951
H   0.21013076625984 0.98114157575399 -1.23680508159828
O   -1.7065596631072 -0.8334352927177 -0.29915120596082
H   -1.61590412944273 -0.80808692480946 -1.26158669678239
O   1.90204209016378 -0.7662700443214 -0.49329669248432
C   1.0769527695618 -0.28786071623593 0.24104983364507
H   0.3884778725516 1.7284906547353 0.37318219447108
H   0.98203454392025 -0.63065642618448 1.30761393813947
*
