! B3LYP def2-SVP d3 EnGrad 
%pal nprocs 6 end 
*xyz 0 1 
C   0.58882874859063 0.3859848894237 -9.20543e-07
H   0.09331541102301 1.39018478420362 -1.030275532e-05
H   1.70868403325802 0.40238667475471 9.09849709e-06
O   -0.03660113941198 -0.63978398471326 -1.31938284e-06
H   -2.29442381365327 0.20854232316009 -7.72808691e-06
H   -2.89264323980639 0.68220031317111 1.117227099e-05
*
