! B3LYP def2-SVP d3 EnGrad 
%pal nprocs 6 end 
*xyz 0 1 
C   1.85153800992587 -0.11294324606001 -0.04861725313877
C   0.50180380899018 0.51807560988626 0.0239382381545
N   -0.61203066897267 -0.20250174521172 -0.11081254330925
C   -1.91847227920585 0.09546767523938 -0.09121739563283
H   0.37601098343355 1.59053557110295 0.18715412047506
H   2.47403193483888 0.29020517467256 -0.8718036088059
H   2.4423762159401 0.02204601037983 0.87880057172892
H   1.77047978437215 -1.20214340273984 -0.21644826356467
H   -2.63113547845191 -0.71200731667585 -0.23040664885155
H   -2.22548700556908 1.12863196739784 0.06137802396072
H   -0.42661330530124 -1.1957572979914 -0.26133424101621
*
