! B3LYP def2-SVP d3 EnGrad 
%pal nprocs 6 end 
*xyz 0 1 
N   1.4012840718485 -0.81558974206727 0.16099278282187
B   1.8701047561803 0.70950589856027 -0.21591386526631
B   -2.31264938295241 -0.35723240724579 -0.25982697096588
N   -1.38995954238525 0.57106549063452 0.21585670552968
H   0.39757574059296 -0.82022488795267 0.38367203777961
H   1.91237141083892 -1.17501280525686 0.97012105257741
H   1.55416493609209 -1.46290390014296 -0.61606708122601
H   1.6487948293582 1.37697401838899 0.78696650280623
H   3.05461836728958 0.64961462325711 -0.50714195231469
H   1.16802806205016 1.03923958537667 -1.16886872058797
H   -2.19027607232365 -0.77589757105363 -1.38718148440437
H   -3.1925906564713 -0.74822247405326 0.46961404812867
H   -1.45308200121883 0.99395035434236 1.13673459633975
H   -0.64995751889929 0.98736681721252 -0.351340651218
*
