! B3LYP def2-SVP d3 EnGrad 
%pal nprocs 6 end 
*xyz 0 1 
C   -0.25713800211254 0.65854405733791 -5.6001e-08
H   -0.32719023081564 1.23702783225803 0.9244112555217
H   -0.32719198120942 1.23702890320577 -0.9244105604108
C   -0.37558863944055 -0.74388710314788 -1.1843001e-07
H   -0.64979265161836 -1.24928482165217 -0.9309573307877
H   -0.64979006048513 -1.24928440341863 0.93095811205164
F   1.63382861651795 0.59073266477906 -2.6111202e-07
H   0.95286294916369 -0.48087712936209 -1.04083181e-06
*
