! B3LYP def2-SVP d3 EnGrad 
%pal nprocs 6 end 
*xyz 0 1 
C   -0.00182139946952 0.08789344429113 1.360418989e-05
O   -0.00208174272561 -1.04244068716584 3.065283902e-05
H   0.01243898492254 3.89020854504924 -2.725507815e-05
H   0.0090741572726 3.12860669782546 -1.700195075e-05
*
