! B3LYP def2-SVP d3 EnGrad 
%pal nprocs 6 end 
*xyz 0 1 
C   -3.14350666905978 0.74066866391809 0.61740299317823
C   -1.80424908535686 0.36763595526818 0.0083240643276
N   -1.13997266941017 -0.64961050962229 0.61565505137248
C   0.11413589491346 -1.2664359292224 0.16106330822645
C   1.36902502295611 -0.38576156542636 0.37330575706033
N   1.33792136514031 0.82523765657232 -0.23511728214317
C   2.43738164210179 1.76063998700905 -0.15336937569982
O   -1.372134071518 0.96445865871519 -0.97534828270624
C   0.02909640707168 -1.79195840651636 -1.27648341104069
O   2.31506149671263 -0.81789967731424 1.01567242960423
H   -3.12451943768941 1.80957300091246 0.87785267255864
H   -3.41277800202838 0.15210917139192 1.50636416020571
H   -3.92074932606669 0.60946211977062 -0.15120163318488
H   -1.54857576337934 -1.03449847731349 1.45731957007583
H   0.28788651877575 -2.11320306542899 0.83763636391935
H   0.47807031166568 1.08344330888521 -0.72607022247745
H   2.13945687134568 2.69377988382717 0.35577189993935
H   2.81486345965529 2.02258951874437 -1.1566289626692
H   3.24688429935843 1.28873379103831 0.41896735049073
H   0.97517998439394 -2.28885431135571 -1.53932227502826
H   -0.15483438740379 -0.97672763391781 -1.98807265442804
H   -0.78724484217831 -2.52606515993525 -1.3663135315812
*
