! B3LYP def2-SVP d3 EnGrad 
%pal nprocs 6 end 
*xyz 0 1 
C   6.62895e-09 -6.83991e-09 0.49817407958472
H   -3.33786e-09 3.43708e-09 1.57770129832965
N   -3.29108e-09 3.40286e-09 -0.65727637791438
*
