! B3LYP def2-SVP d3 EnGrad 
%pal nprocs 6 end 
*xyz 0 1 
C   0.44863286179335 -0.46290031806836 0.01477762911339
H   -0.23948715334207 0.24710334194027 0.69094205029901
N   -0.20914570845128 0.2157969761281 -0.7057196794124
*
