! B3LYP def2-SVP d3 EnGrad 
%pal nprocs 6 end 
*xyz 0 1 
C   1.1529515241001 -0.22368901581764 0.07399711570983
O   -0.03942892057804 0.52099064246944 0.15673553772041
N   -1.14815470313213 -0.32743670948487 -0.14422759107374
H   -1.77855594721834 -0.20745926262402 0.65475955088179
H   1.96791451192902 0.47795380534719 0.31217062791291
H   1.316083571291 -0.63659306878499 -0.9396207299746
H   1.17200062842823 -1.06112193661049 0.79682602129932
H   -1.61992866481984 0.1417245455054 -0.92411453247589
*
