! B3LYP def2-SVP d3 EnGrad 
%pal nprocs 6 end 
*xyz 0 1 
N   1.49626432106562 -0.61953441384001 -0.06748557966534
B   2.06562325159618 0.64654824816227 -0.10135725855565
B   -2.29955081726072 -0.29475938083921 1.13666020550193
N   -1.55356336937964 0.38025039028148 0.17272345866125
H   0.5135540967675 -0.77217292449252 0.14309969146687
H   2.02171508639773 -1.4715966899724 -0.22945591548689
H   0.01550218024819 -0.67219131178575 -2.45019775830007
H   3.24105709359577 0.77352598212531 -0.34536568037218
H   -0.3949731890036 -0.84992780534613 -3.06692727415236
H   1.36297121320344 1.61022696154329 0.1118731994731
H   -3.0929446936626 -1.13432028230483 0.78342327346155
H   -2.12288301560387 -0.03380229828381 2.30210955153303
H   -0.8954755831181 1.1223163745398 0.39231676525796
H   -1.67284657484591 0.23927415021255 -0.82517567882323
*
