! B3LYP def2-SVP d3 EnGrad 
%pal nprocs 6 end 
*xyz 0 1 
C   3.41410323058596 -0.03355127741755 0.13870972272142
C   1.91194247160794 -0.00048699313277 0.08397637769584
H   3.86678089231659 0.51070026080397 -0.6994213919907
H   3.74196425578304 -1.08425076126892 0.12164672917592
H   3.74243017903976 0.40175538195419 1.09418104074609
O   1.48596085848024 0.62732940885401 -1.03011053171644
O   0.06198280710579 0.66472265280481 -1.12261884575339
H   -0.2271648573605 0.17263812219285 -0.31108398271853
O   1.14836248060344 -0.46642351251815 0.89661697753285
C   -2.16750086777116 0.06083770564972 0.98956293314091
C   -2.14770491697207 -1.06433837847555 0.25522301714537
C   -2.79459638320733 -1.29969532099584 -1.07815687340388
H   -1.57354212658582 -1.90789837530333 0.65687943238608
H   -3.42851355230161 -0.46164339513572 -1.4010944880633
H   -3.41583556779309 -2.21165597460791 -1.05933094875829
H   -2.02558514577507 -1.4537818268942 -1.85561378014588
C   -2.83971144897479 1.35985410822379 0.65541213382257
H   -1.60591405172918 0.04847273127105 1.9310797666017
H   -3.45392210169034 1.3027595460032 -0.2544421780966
H   -2.08644673807659 2.15243807401192 0.49940996649396
H   -3.48611941728509 1.6936908239804 1.48514692318428
*
