! B3LYP def2-SVP d3 EnGrad 
%pal nprocs 6 end 
*xyz 0 1 
C   1.12187133e-06 0.52271860601234 -1.425043e-08
O   3.87634996e-06 -0.6770834521769 4.58378e-09
H   -0.94509038353639 1.12634697889763 4.83331e-09
H   0.94509038531513 1.12635086726693 4.83332e-09
*
