! B3LYP def2-SVP d3 EnGrad 
%pal nprocs 6 end 
*xyz 0 1 
C   1.83945643409847 0.39613536300878 -0.15975053037652
C   0.45337936835536 0.91118630256385 0.09216479568113
C   -0.69108898485499 0.2075493899077 0.07229935391829
C   -0.87285462891165 -1.2575398963602 -0.17204474211443
O   -1.91330091729381 0.80622049265855 0.30195833998646
H   2.29827554841339 0.88904732190197 -1.03566471956331
H   1.85775142267028 -0.68733446196324 -0.34568905413405
H   2.5063820346229 0.59751331530235 0.69732113860113
H   0.08367537301455 -1.78679178447205 -0.25261828717007
H   -1.44898266698688 -1.41811955905276 -1.09912481260306
H   -1.46681708524288 -1.6828110440187 0.65253153502651
H   -1.78552143702666 1.75871241460693 0.41722004028539
H   0.37232253135048 1.98728693855676 0.30310912453448
H   -2.8345346195475 -0.24801124831881 1.68379543692597
O   -2.95789081483578 -0.92844154374678 2.36815762283002
H   -2.20153355782524 -0.77997200057437 2.95187275817202
*
